1 -706 -712 0
-706 -709 -712 0
-24 706 -712 0
23 -707 706 -711 -712 0
1 226 -17 24 0
4 40 6 -1 0
-709 -710 -711 -712 0
-1 24 709 -710 0
24 709 -710 -712 0
709 -710 -712 0
d 24 709 -710 -712 0
-710 -711 -712 0
d -709 -710 -711 -712 0
-24 -711 -712 0
-1 -20 -711 -712 0
-20 -711 -712 0
d -1 -20 -711 -712 0
-711 -712 0
d -710 -711 -712 0
-1 24 -712 0
24 -712 0
d -1 24 -712 0
-24 -712 0
d -24 -23 -712 0
-712 0
-1 -24 0
-24 0
23 0
-1 0
-683 0
690 0
46 0
2 0
705 0
661 0
-30 0
-706 0
-53 0
-662 0
-74 0
-610 0
-654 0
-639 0
-97 0
-45 0
52 0
8 0
17 0
684 0
75 0
31 0
640 0
96 0
632 0
588 0
676 0
617 0
119 0
67 0
-103 0
-538 0
-227 0
-59 0
-233 0
-494 0
-668 0
-242 0
-248 0
-271 0
-277 0
-436 0
-459 0
-465 0
-480 0
-503 0
-198 0
226 0
-677 0
-509 0
-204 0
-219 0
-175 0
-532 0
-488 0
-68 0
-633 0
-126 0
-561 0
-300 0
-82 0
-256 0
-517 0
-691 0
-589 0
-154 0
-20 0
-19 0
-415 0
-147 0
-582 0
-321 0
-581 0
-146 0
-407 0
-537 0
-102 0
-363 0
-625 0
-16 0
-190 0
-451 0
-566 0
-131 0
-392 0
-170 0
-344 0
-605 0
-553 0
-118 0
-292 0
125 0
11 0
560 0
647 0
81 0
516 0
249 0
205 0
37 0
255 0
211 0
472 0
646 0
264 0
699 0
220 0
270 0
293 0
299 0
458 0
414 0
481 0
437 0
487 0
443 0
502 0
525 0
176 0
655 0
104 0
531 0
182 0
241 0
7 0
13 0
197 0
153 0
554 0
510 0
466 0
90 0
641 0
611 0
60 0
89 0
148 0
583 0
670 0
539 0
322 0
278 0
234 0
495 0
0
